TCS_Benchmarks/redos_fix/corpus1_output_distinct_864_863_31_0.txt
(\d|_)+(\d|\w)+
(\d|\w)+
_.*